
Gurobi 11.0.3 (linux64) logging started Fri Nov 22 07:20:00 2024

Set parameter LogFile to value "/home/yihong/Coding/OR_SUC/SUC_results_bigM100000_thread4/case24_ieee_rts_theta0.1_epsilon0.05_gurobi_seed490000_num_gen100_N_WDR100_load_scaling_factor1_exact_T20quadra_cost.txt"
Set parameter TimeLimit to value 3600
Gurobi Optimizer version 11.0.3 build v11.0.3rc0 (linux64 - "Ubuntu 20.04.6 LTS")

CPU model: AMD EPYC 7532 32-Core Processor, instruction set [SSE2|AVX|AVX2]
Thread count: 64 physical cores, 128 logical processors, using up to 4 threads

Optimize a model with 47983 rows, 25001 columns and 1104482 nonzeros
Model fingerprint: 0xbfea1fa4
Model has 2000 quadratic constraints
Variable types: 22901 continuous, 2100 integer (2100 binary)
Coefficient statistics:
  Matrix range     [3e-04, 1e+05]
  QMatrix range    [2e-03, 8e-03]
  QLMatrix range   [2e-01, 6e+01]
  Objective range  [1e+00, 1e+00]
  Bounds range     [1e+00, 1e+00]
  RHS range        [1e+00, 1e+05]
Presolve removed 39183 rows and 10592 columns
Presolve time: 0.34s
Presolved: 8800 rows, 14409 columns, 48754 nonzeros
Presolved model has 2000 quadratic constraint(s)
Variable types: 12314 continuous, 2095 integer (2095 binary)

Root relaxation: objective 2.470862e+04, 6621 iterations, 0.18 seconds (0.27 work units)

    Nodes    |    Current Node    |     Objective Bounds      |     Work
 Expl Unexpl |  Obj  Depth IntInf | Incumbent    BestBd   Gap | It/Node Time

     0     0 24708.6235    0   12          - 24708.6235      -     -    0s
     0     0 256703.439    0  837          - 256703.439      -     -    1s
     0     0 256808.556    0  838          - 256808.556      -     -    1s
     0     0 501641.284    0  805          - 501641.284      -     -    1s
     0     0 501722.033    0  428          - 501722.033      -     -    1s
     0     0 502192.885    0  185          - 502192.885      -     -    1s
     0     0 502195.386    0  176          - 502195.386      -     -    1s
     0     0 502356.869    0  173          - 502356.869      -     -    1s
     0     0 502356.906    0  173          - 502356.906      -     -    1s
     0     2 502357.025    0  173          - 502357.025      -     -    2s
H  319   322                    502630.25334 502419.460  0.04%  14.7    4s
*  319   322             126    502630.25334 502419.460  0.04%  14.9    4s

Cutting planes:
  Gomory: 6
  Implied bound: 263
  MIR: 173
  Flow cover: 707

Explored 422 nodes (25794 simplex iterations) in 4.79 seconds (6.22 work units)
Thread count was 4 (of 128 available processors)

Solution count 2: 502630 502630 

Optimal solution found (tolerance 1.00e-03)
Warning: max constraint violation (1.7368e-07) exceeds tolerance
Best objective 5.026302533416e+05, best bound 5.024194598941e+05, gap 0.0419%
